
n_res = 4;
rcap = [31, 30, 460, 477];
rtype = [1, 1, 2, 2];
n_tasks = 100;
modes =  [{1, 2, 3}, {4, 5, 6}, {7, 8, 9}, {10, 11, 12}, {13, 14, 15}, {16, 17, 18}, {19, 20, 21}, {22, 23, 24}, {25, 26, 27}, {28, 29, 30}, {31, 32, 33}, {34, 35, 36}, {37, 38, 39}, {40, 41, 42}, {43, 44, 45}, {46, 47, 48}, {49, 50, 51}, {52, 53, 54}, {55, 56, 57}, {58, 59, 60}, {61, 62, 63}, {64, 65, 66}, {67, 68, 69}, {70, 71, 72}, {73, 74, 75}, {76, 77, 78}, {79, 80, 81}, {82, 83, 84}, {85, 86, 87}, {88, 89, 90}, {91, 92, 93}, {94, 95, 96}, {97, 98, 99}, {100, 101, 102}, {103, 104, 105}, {106, 107, 108}, {109, 110, 111}, {112, 113, 114}, {115, 116, 117}, {118, 119, 120}, {121, 122, 123}, {124, 125, 126}, {127, 128, 129}, {130, 131, 132}, {133, 134, 135}, {136, 137, 138}, {139, 140, 141}, {142, 143, 144}, {145, 146, 147}, {148, 149, 150}, {151, 152, 153}, {154, 155, 156}, {157, 158, 159}, {160, 161, 162}, {163, 164, 165}, {166, 167, 168}, {169, 170, 171}, {172, 173, 174}, {175, 176, 177}, {178, 179, 180}, {181, 182, 183}, {184, 185, 186}, {187, 188, 189}, {190, 191, 192}, {193, 194, 195}, {196, 197, 198}, {199, 200, 201}, {202, 203, 204}, {205, 206, 207}, {208, 209, 210}, {211, 212, 213}, {214, 215, 216}, {217, 218, 219}, {220, 221, 222}, {223, 224, 225}, {226, 227, 228}, {229, 230, 231}, {232, 233, 234}, {235, 236, 237}, {238, 239, 240}, {241, 242, 243}, {244, 245, 246}, {247, 248, 249}, {250, 251, 252}, {253, 254, 255}, {256, 257, 258}, {259, 260, 261}, {262, 263, 264}, {265, 266, 267}, {268, 269, 270}, {271, 272, 273}, {274, 275, 276}, {277, 278, 279}, {280, 281, 282}, {283, 284, 285}, {286, 287, 288}, {289, 290, 291}, {292, 293, 294}, {295, 296, 297}, {298, 299, 300}];
succ =  [{53, 48, 44, 43, 38, 37, 35, 34, 31, 30, 29, 18, 14}, {47, 46, 41, 39, 35, 28, 25, 24, 16}, {40, 37, 36, 35, 28, 26, 20}, {58, 53, 49, 47, 46, 44, 41, 40, 39, 28, 23}, {54, 47, 42, 41, 36, 35, 25, 20}, {58, 57, 56, 53, 50, 44, 42, 41, 30, 26}, {58, 49, 47, 46, 44, 42, 39, 38, 31, 25}, {63, 62, 58, 56, 53, 49, 46, 42, 41, 34, 25}, {63, 58, 57, 55, 49, 44, 42, 41, 40, 38, 31}, {61, 59, 58, 55, 50, 49, 45, 39, 27}, {63, 60, 58, 57, 56, 55, 54, 51, 50, 47, 45, 42, 41, 38}, {60, 58, 56, 53, 45, 44, 39, 36, 28}, {61, 57, 48, 47, 46, 42, 36, 32}, {63, 62, 58, 56, 54, 46, 25}, {60, 58, 55, 50, 49, 44, 38, 28}, {63, 60, 57, 55, 53, 52, 51, 49, 40, 38}, {61, 57, 56, 54, 50, 49, 47, 46, 43, 40}, {58, 56, 55, 50, 46, 45, 42, 41, 39}, {64, 63, 62, 61, 60, 59, 58, 56, 55, 54, 51, 49, 45, 42}, {63, 60, 53, 50, 49, 46, 45, 44, 38}, {63, 60, 56, 55, 51, 50, 45, 44, 38}, {63, 60, 57, 54, 52, 51, 50, 49, 38}, {55, 42, 38, 31}, {100, 99, 66, 61, 60, 59, 54, 51, 44, 36}, {74, 61, 60, 57, 55, 52, 51, 50, 40}, {73, 55, 48, 45, 43, 39}, {69, 65, 63, 60, 56, 54, 53, 42, 41}, {98, 74, 70, 65, 64, 63, 62, 61, 59, 57, 51, 42}, {74, 71, 66, 64, 62, 61, 60, 59, 57, 51, 50, 45}, {100, 77, 76, 74, 73, 71, 62, 61, 60, 55, 40}, {99, 76, 74, 72, 69, 67, 66, 65, 64, 60, 59, 56, 54, 52, 50}, {77, 76, 73, 71, 65, 63, 62, 60, 59, 56, 54, 53, 49}, {100, 99, 98, 76, 74, 73, 69, 67, 66, 62, 61, 60, 59, 52}, {100, 69, 67, 66, 61, 60, 59, 54, 52, 50}, {98, 76, 74, 71, 68, 61, 60, 58, 56, 49}, {98, 96, 76, 74, 73, 70, 69, 65, 64, 63, 62, 52}, {98, 76, 72, 71, 69, 67, 66, 60, 57, 56, 54}, {99, 96, 77, 74, 73, 70, 69, 65, 64, 62, 61, 59}, {99, 80, 77, 71, 66, 63, 62, 54, 51}, {98, 64, 59, 45}, {99, 98, 95, 94, 91, 90, 82, 81, 80, 77, 76, 74, 70, 68, 67, 66, 64}, {97, 82, 79, 76, 73, 72, 68, 67, 66, 52}, {100, 99, 98, 96, 94, 92, 91, 82, 80, 75, 74, 69, 67, 64, 63}, {96, 95, 94, 81, 80, 76, 71, 67, 65, 64, 62}, {99, 97, 96, 95, 94, 92, 91, 82, 80, 72, 70, 69, 67, 65}, {100, 98, 94, 80, 73, 71, 70, 51}, {98, 96, 95, 92, 91, 81, 80, 79, 77, 76, 71, 68, 67}, {99, 97, 93, 92, 90, 69, 65, 60}, {97, 95, 94, 91, 90, 88, 82, 75, 70, 69, 66}, {98, 95, 94, 91, 90, 88, 81, 80, 79, 73, 68}, {92, 91, 79, 76, 72, 69, 67}, {95, 94, 92, 91, 89, 87, 86, 80, 77, 75, 71}, {99, 98, 95, 91, 90, 88, 78, 70, 67}, {97, 95, 94, 91, 90, 89, 88, 86, 82, 79, 75}, {98, 97, 94, 93, 89, 86, 82, 81, 66}, {100, 96, 94, 93, 92, 90, 89, 88, 86, 85, 81, 80}, {100, 96, 92, 91, 90, 89, 85, 81, 80, 68}, {99, 93, 92, 90, 88, 85, 81, 80, 79, 78}, {95, 94, 91, 90, 88, 85, 81, 80, 68}, {95, 94, 91, 89, 88, 83, 78, 70}, {93, 88, 87, 82, 78, 75, 72}, {92, 91, 85, 79, 72, 68}, {95, 89, 88, 86, 85, 81, 79, 78}, {97, 93, 89, 86, 85, 83, 79, 78}, {89, 88, 85, 83, 78}, {96, 92, 87, 84, 83}, {93, 89, 87, 85}, {86, 83, 78}, {86, 83, 78}, {86, 85, 79}, {90, 83, 78}, {90, 89, 86}, {85, 84, 83}, {88, 85, 83}, {84, 83}, {88, 83}, {88, 83}, {84}, {87}, {84}, {83}, {85}, {}, {}, {}, {}, {}, {}, {}, {}, {}, {}, {}, {}, {}, {}, {}, {}, {}, {}];
n_opt = 300;
dur = [4, 5, 7, 4, 5, 6, 3, 6, 7, 6, 8, 10, 3, 5, 9, 5, 5, 7, 2, 5, 8, 2, 3, 4, 1, 8, 10, 2, 4, 8, 2, 2, 5, 7, 8, 8, 2, 3, 9, 1, 2, 9, 1, 7, 10, 2, 2, 6, 3, 6, 7, 2, 4, 6, 2, 5, 10, 3, 7, 10, 7, 8, 8, 5, 6, 6, 1, 7, 10, 3, 4, 7, 3, 5, 7, 1, 3, 4, 2, 9, 10, 4, 6, 10, 1, 7, 10, 1, 1, 10, 4, 5, 9, 5, 10, 10, 5, 9, 10, 1, 1, 8, 2, 4, 7, 2, 3, 10, 1, 4, 5, 1, 3, 9, 1, 6, 7, 3, 8, 9, 4, 5, 7, 4, 4, 10, 3, 5, 6, 1, 8, 10, 1, 6, 7, 2, 7, 7, 7, 7, 8, 3, 6, 6, 2, 7, 9, 5, 5, 10, 4, 5, 7, 3, 6, 7, 6, 7, 9, 3, 4, 6, 6, 7, 8, 5, 6, 7, 3, 5, 10, 5, 6, 9, 4, 8, 10, 1, 10, 10, 4, 8, 9, 1, 3, 6, 6, 8, 10, 5, 10, 10, 1, 2, 10, 4, 9, 10, 4, 8, 9, 3, 7, 10, 7, 8, 10, 4, 7, 8, 2, 4, 6, 4, 4, 5, 5, 8, 9, 2, 4, 6, 3, 3, 9, 3, 3, 8, 3, 8, 10, 2, 3, 8, 5, 6, 9, 2, 2, 6, 3, 5, 6, 2, 6, 10, 5, 6, 7, 1, 4, 9, 5, 6, 9, 1, 3, 4, 5, 6, 7, 1, 7, 8, 3, 5, 7, 3, 9, 10, 2, 3, 5, 4, 8, 9, 1, 5, 5, 7, 8, 10, 6, 8, 10, 1, 8, 9, 4, 7, 9, 5, 7, 10, 5, 7, 8, 6, 7, 10];
rreq = [|0, 2, 0, 5, 0, 0, 3, 0, 0, 4, 0, 0, 0, 0, 1, 0, 5, 5, 0, 1, 0, 0, 1, 1, 0, 2, 2, 0, 0, 4, 1, 0, 1, 4, 0, 4, 4, 4, 4, 0, 0, 1, 4, 3, 3, 0, 4, 4, 4, 4, 3, 0, 0, 0, 0, 3, 0, 4, 0, 2, 2, 0, 1, 0, 0, 5, 0, 0, 2, 0, 0, 3, 5, 4, 3, 0, 2, 0, 0, 2, 2, 0, 2, 2, 2, 0, 1, 5, 0, 0, 0, 1, 0, 0, 0, 2, 3, 0, 0, 0, 3, 2, 0, 2, 2, 1, 1, 1, 4, 0, 0, 0, 4, 0, 0, 4, 0, 0, 4, 4, 4, 0, 3, 2, 0, 1, 4, 4, 0, 0, 0, 0, 2, 1, 1, 4, 2, 0, 0, 3, 2, 0, 0, 1, 3, 0, 0, 0, 4, 3, 3, 3, 2, 0, 0, 2, 3, 0, 0, 1, 1, 1, 0, 0, 0, 5, 0, 0, 5, 5, 5, 0, 0, 1, 4, 0, 0, 1, 1, 0, 4, 3, 0, 0, 1, 1, 3, 2, 0, 3, 0, 1, 0, 0, 0, 0, 3, 1, 3, 0, 2, 3, 0, 1, 0, 0, 2, 0, 0, 2, 0, 0, 0, 0, 1, 0, 2, 0, 0, 0, 3, 0, 3, 0, 0, 0, 3, 3, 0, 0, 4, 5, 3, 0, 0, 0, 2, 0, 1, 1, 0, 2, 0, 0, 0, 0, 3, 3, 3, 0, 1, 0, 0, 0, 0, 0, 2, 0, 5, 5, 5, 2, 2, 0, 3, 0, 0, 2, 2, 0, 4, 4, 2, 0, 0, 0, 2, 0, 1, 0, 0, 3, 4, 3, 1, 0, 0, 4, 0, 0, 2, 5, 0, 0, 0, 2, 2, 0, 2, 2
 |3, 0, 1, 0, 3, 3, 0, 3, 1, 0, 4, 3, 4, 2, 0, 4, 0, 0, 4, 0, 1, 3, 0, 0, 1, 0, 0, 5, 4, 0, 0, 2, 0, 0, 4, 0, 0, 0, 0, 3, 3, 0, 0, 0, 0, 2, 0, 0, 0, 0, 0, 3, 3, 3, 3, 0, 1, 0, 5, 0, 0, 2, 0, 4, 4, 0, 3, 3, 0, 3, 3, 0, 0, 0, 0, 4, 0, 4, 2, 0, 0, 3, 0, 0, 0, 3, 0, 0, 1, 1, 2, 0, 1, 1, 1, 0, 0, 2, 2, 5, 0, 0, 2, 0, 0, 0, 0, 0, 0, 1, 1, 3, 0, 2, 3, 0, 1, 3, 0, 0, 0, 3, 0, 0, 3, 0, 0, 0, 4, 2, 1, 1, 0, 0, 0, 0, 0, 5, 3, 0, 0, 5, 3, 0, 0, 5, 5, 2, 0, 0, 0, 0, 0, 2, 2, 0, 0, 1, 1, 0, 0, 0, 4, 3, 3, 0, 3, 2, 0, 0, 0, 3, 2, 0, 0, 3, 2, 0, 0, 3, 0, 0, 2, 4, 0, 0, 0, 0, 4, 0, 4, 0, 5, 2, 1, 2, 0, 0, 0, 3, 0, 0, 2, 0, 3, 3, 0, 3, 3, 0, 1, 1, 1, 5, 0, 3, 0, 4, 3, 5, 0, 1, 0, 1, 1, 5, 0, 0, 4, 2, 0, 0, 0, 2, 3, 2, 0, 2, 0, 0, 5, 0, 1, 5, 3, 3, 0, 0, 0, 1, 0, 1, 4, 3, 3, 3, 0, 2, 0, 0, 0, 0, 0, 2, 0, 2, 1, 0, 0, 3, 0, 0, 0, 2, 2, 2, 0, 3, 0, 3, 3, 0, 0, 0, 0, 3, 3, 0, 2, 1, 0, 0, 5, 5, 3, 0, 0, 1, 0, 0
 |8, 7, 6, 10, 8, 6, 8, 5, 3, 4, 3, 2, 3, 2, 2, 9, 7, 4, 6, 3, 3, 7, 6, 5, 5, 5, 4, 7, 5, 3, 9, 9, 9, 4, 4, 3, 7, 5, 4, 8, 6, 5, 1, 1, 1, 4, 4, 3, 2, 2, 2, 6, 5, 5, 9, 8, 8, 3, 2, 2, 5, 4, 3, 7, 4, 3, 4, 3, 3, 9, 5, 3, 8, 8, 6, 7, 5, 3, 8, 4, 3, 8, 7, 6, 7, 5, 5, 6, 6, 4, 5, 5, 1, 6, 5, 3, 8, 6, 6, 4, 2, 1, 2, 2, 2, 8, 6, 3, 4, 4, 3, 9, 8, 7, 7, 7, 4, 10, 8, 6, 7, 6, 5, 3, 3, 3, 5, 5, 3, 10, 8, 8, 6, 6, 6, 3, 3, 3, 5, 3, 3, 7, 5, 4, 5, 5, 3, 5, 2, 2, 7, 6, 5, 8, 8, 8, 4, 4, 2, 4, 4, 4, 6, 5, 5, 4, 2, 2, 4, 3, 3, 6, 4, 2, 8, 7, 5, 4, 3, 2, 9, 6, 4, 6, 6, 4, 2, 1, 1, 8, 8, 5, 8, 7, 5, 5, 4, 3, 6, 6, 3, 6, 4, 3, 8, 6, 6, 6, 4, 4, 7, 3, 2, 2, 2, 2, 1, 1, 1, 9, 9, 9, 9, 8, 6, 10, 9, 9, 8, 6, 6, 6, 3, 3, 6, 4, 4, 5, 4, 4, 10, 8, 6, 5, 2, 1, 8, 7, 7, 7, 6, 3, 3, 2, 2, 8, 7, 6, 7, 7, 7, 9, 8, 6, 7, 6, 3, 6, 3, 1, 10, 10, 10, 6, 6, 6, 8, 6, 2, 6, 4, 4, 7, 4, 3, 8, 5, 1, 7, 6, 6, 3, 3, 1, 8, 8, 8, 6, 6, 4
 |4, 3, 1, 3, 1, 1, 3, 2, 1, 9, 8, 6, 10, 8, 8, 9, 4, 4, 8, 8, 8, 6, 3, 2, 6, 4, 3, 7, 3, 3, 6, 5, 5, 2, 2, 2, 8, 7, 6, 2, 1, 1, 10, 8, 7, 3, 1, 1, 4, 3, 3, 5, 5, 4, 3, 3, 2, 5, 5, 1, 10, 10, 10, 7, 4, 3, 3, 3, 2, 6, 3, 3, 4, 4, 2, 4, 4, 2, 5, 4, 3, 7, 7, 6, 7, 3, 1, 7, 6, 5, 8, 6, 3, 9, 7, 7, 4, 3, 2, 8, 5, 3, 8, 6, 2, 7, 7, 5, 6, 3, 3, 7, 7, 6, 6, 6, 5, 8, 7, 7, 6, 4, 4, 9, 7, 7, 6, 5, 5, 9, 8, 7, 6, 6, 4, 9, 7, 7, 4, 3, 3, 2, 1, 1, 3, 3, 2, 8, 8, 7, 4, 4, 4, 9, 8, 8, 10, 10, 10, 7, 6, 5, 6, 4, 3, 6, 5, 4, 9, 9, 8, 7, 5, 5, 9, 8, 6, 7, 7, 1, 5, 5, 5, 7, 5, 5, 9, 7, 7, 7, 4, 4, 5, 4, 3, 8, 8, 8, 6, 6, 6, 4, 2, 2, 7, 7, 5, 8, 8, 7, 7, 5, 4, 4, 4, 2, 8, 5, 1, 8, 8, 7, 4, 3, 2, 10, 7, 1, 8, 6, 6, 8, 6, 4, 5, 5, 5, 6, 5, 4, 7, 5, 3, 4, 3, 3, 6, 6, 5, 2, 2, 2, 2, 2, 1, 4, 4, 2, 9, 6, 3, 8, 7, 4, 8, 8, 8, 8, 5, 4, 2, 1, 2, 8, 7, 4, 10, 8, 8, 3, 3, 3, 8, 6, 5, 8, 7, 6, 1, 1, 1, 8, 8, 8, 9, 7, 6, 8, 5, 3|];